(declare-fun ExpandObjSwitcher () Real)
(declare-fun CreateAsClass () Bool)
(declare-fun Constructed_Argument_t () String)
(assert (= ExpandObjSwitcher 0.0))
(assert (not CreateAsClass))
(assert (= Constructed_Argument_t "string"))
(check-sat)
